Normalized Data/p04_17_normalized_splitx10_0.vrp
NAME:p04_17_NORMALIZED_splitx10_
BEST_KNOWN: 0
COMMENT: 0
DIMENSION: 595
CAPACITY: 1000
EDGE_WEIGHT_FORMAT: FUNCTION
EDGE_WEIGHT_TYPE: EXACT_2D
NODE_COORD_SECTION
1 0.00000 0.00000
2 24 -48
3 24 -48
4 30 23
5 30 23
6 30 23
7 33 -41
8 33 -41
9 33 -41
10 33 -41
11 -28 -40
12 -28 -40
13 40 -30
14 40 -30
15 40 -30
16 40 -30
17 40 -30
18 40 -30
19 -28 15
20 -28 15
21 -28 15
22 -28 15
23 -28 15
24 -46 26
25 -46 26
26 -46 26
27 -46 26
28 26 -7
29 26 -7
30 26 -7
31 26 -7
32 -9 -6
33 -9 -6
34 -9 -6
35 -9 -6
36 -9 -6
37 -9 -6
38 -9 -6
39 19 -27
40 19 -27
41 19 -27
42 19 -27
43 19 -27
44 32 -24
45 32 -24
46 32 -24
47 32 -24
48 -41 -19
49 -41 -19
50 -41 -19
51 -41 -19
52 -41 -19
53 -41 -19
54 16 -24
55 16 -24
56 16 -24
57 16 -24
58 16 -24
59 16 -24
60 -35 -20
61 -35 -20
62 -35 -20
63 -35 -20
64 -36 4
65 -36 4
66 -36 4
67 9 43
68 9 43
69 9 43
70 9 43
71 -17 26
72 -17 26
73 -17 26
74 -17 26
75 6 6
76 6 6
77 6 6
78 6 6
79 6 6
80 12 36
81 12 36
82 12 36
83 12 36
84 12 36
85 12 42
86 12 42
87 12 42
88 12 42
89 15 -20
90 15 -20
91 15 -20
92 15 -20
93 15 -20
94 8 43
95 8 43
96 8 43
97 8 43
98 8 43
99 -39 -42
100 -39 -42
101 -39 -42
102 -39 -42
103 -39 -42
104 -39 -42
105 -39 -42
106 -24 -44
107 -24 -44
108 -24 -44
109 -24 -44
110 -24 -44
111 -24 -44
112 -14 -24
113 -14 -24
114 -14 -24
115 -46 8
116 -46 8
117 -6 0
118 -6 0
119 28 -35
120 28 -35
121 28 -35
122 28 -35
123 28 -35
124 -29 -5
125 -29 -5
126 -29 -5
127 -49 -48
128 -49 -48
129 -49 -48
130 -49 -48
131 -49 -48
132 -49 -48
133 48 -26
134 48 -26
135 48 -26
136 48 -26
137 48 -26
138 16 36
139 16 36
140 16 36
141 48 -42
142 48 -42
143 48 -42
144 48 -42
145 48 -42
146 9 -32
147 9 -32
148 9 -32
149 9 -32
150 -16 13
151 -16 13
152 -16 13
153 -16 13
154 -16 13
155 -10 41
156 -10 41
157 -10 41
158 -10 41
159 -10 41
160 -10 41
161 -10 41
162 33 15
163 33 15
164 33 15
165 33 15
166 33 15
167 16 -30
168 16 -30
169 -26 40
170 -26 40
171 -26 40
172 -50 10
173 -50 10
174 -50 10
175 -50 10
176 -50 10
177 -39 36
178 -39 36
179 -39 36
180 -39 36
181 -39 36
182 -39 36
183 -13 -10
184 -13 -10
185 -13 -10
186 -13 -10
187 -13 -10
188 -50 -17
189 -50 -17
190 -11 -35
191 -11 -35
192 -11 -35
193 -48 -43
194 -48 -43
195 -48 -43
196 -48 -43
197 -48 -43
198 -48 -43
199 25 -36
200 25 -36
201 25 -36
202 -2 26
203 -2 26
204 -2 26
205 -2 26
206 -2 26
207 -2 26
208 -31 -43
209 -31 -43
210 41 2
211 41 2
212 41 2
213 41 2
214 41 2
215 41 2
216 10 31
217 10 31
218 31 -15
219 31 -15
220 31 -15
221 31 -15
222 6 -50
223 -31 -12
224 -31 -12
225 -29 -23
226 -29 -23
227 10 -15
228 -37 -11
229 -37 -11
230 -37 -11
231 -37 -11
232 -37 -11
233 -45 -17
234 -45 -17
235 -45 -17
236 -45 -17
237 -45 -17
238 -45 -17
239 -45 -17
240 -38 -6
241 -38 -6
242 -38 -6
243 -48 43
244 -48 43
245 -33 -4
246 -33 -4
247 -33 -4
248 -47 4
249 -47 4
250 -47 4
251 -49 8
252 -49 8
253 -49 8
254 -49 8
255 -49 8
256 18 -45
257 18 -45
258 18 -45
259 18 -45
260 18 -45
261 18 -45
262 -36 -47
263 -36 -47
264 -36 -47
265 -36 -47
266 -36 -47
267 -18 -22
268 -18 -22
269 -18 -22
270 11 -19
271 11 -19
272 11 -19
273 11 -19
274 -17 -12
275 -17 -12
276 -17 -12
277 -17 -12
278 -17 -12
279 -17 -12
280 -17 -12
281 -14 30
282 -14 30
283 -14 30
284 -49 -11
285 -49 -11
286 -48 29
287 -48 29
288 -48 29
289 -48 29
290 -48 29
291 -16 1
292 -16 1
293 -16 1
294 -16 1
295 -16 1
296 -16 1
297 -28 24
298 -28 24
299 -28 24
300 -28 24
301 -28 24
302 8 6
303 8 6
304 8 6
305 8 6
306 -6 -27
307 -6 -27
308 -6 -27
309 47 -8
310 47 -8
311 47 -8
312 47 -8
313 42 28
314 42 28
315 -20 -49
316 -20 -49
317 -20 -49
318 32 18
319 32 18
320 32 18
321 32 18
322 32 18
323 -47 24
324 35 30
325 35 30
326 35 30
327 -41 -28
328 -41 -28
329 -41 -28
330 -41 -28
331 2 28
332 2 28
333 2 28
334 2 28
335 2 28
336 -44 47
337 -44 47
338 -44 47
339 -41 -36
340 -41 -36
341 -41 -36
342 -41 -36
343 -41 -36
344 31 14
345 31 14
346 8 -22
347 8 -22
348 8 -22
349 17 23
350 17 23
351 17 23
352 17 23
353 17 23
354 17 23
355 -34 -2
356 -34 -2
357 -34 -2
358 -9 -29
359 -9 -29
360 -9 -29
361 -9 -29
362 -17 21
363 -17 21
364 -17 21
365 -17 21
366 -17 21
367 -17 21
368 22 23
369 -8 -40
370 -8 -40
371 -34 18
372 -34 18
373 -34 18
374 -34 18
375 -34 18
376 -34 18
377 40 -19
378 40 -19
379 40 -19
380 18 -41
381 18 -41
382 18 -41
383 18 -41
384 18 -41
385 18 -41
386 43 -23
387 -37 44
388 -37 44
389 -37 44
390 -37 44
391 -37 44
392 -37 44
393 -37 44
394 -49 28
395 -49 28
396 -49 28
397 -49 28
398 -49 28
399 -49 28
400 -14 -1
401 -14 -1
402 -14 -1
403 49 -6
404 49 -6
405 49 -6
406 49 -6
407 49 -6
408 -4 21
409 -4 21
410 -4 21
411 -4 21
412 -4 21
413 -4 21
414 -31 26
415 -31 26
416 -31 26
417 -36 45
418 -36 45
419 41 -48
420 41 -48
421 41 -48
422 41 -48
423 41 -48
424 39 23
425 39 23
426 39 23
427 39 23
428 39 23
429 39 23
430 46 50
431 46 50
432 46 50
433 46 50
434 46 50
435 1 6
436 1 6
437 1 6
438 1 6
439 1 6
440 -29 28
441 -29 28
442 -29 28
443 -29 28
444 -31 -10
445 -31 -10
446 -31 -10
447 -31 -10
448 10 46
449 10 46
450 1 19
451 1 19
452 -26 -22
453 -26 -22
454 24 8
455 24 8
456 24 8
457 24 8
458 -42 -41
459 -42 -41
460 -42 -41
461 -29 32
462 -29 32
463 -29 32
464 -29 32
465 -29 32
466 -29 32
467 34 38
468 41 -39
469 41 -39
470 41 -39
471 36 -3
472 36 -3
473 36 -3
474 36 -3
475 36 -3
476 -31 -46
477 -31 -46
478 6 25
479 6 25
480 6 25
481 6 25
482 43 -14
483 43 -14
484 43 -14
485 43 -14
486 -4 -15
487 -4 -15
488 -4 -15
489 1 -27
490 1 -27
491 1 -27
492 1 -27
493 1 -27
494 24 -44
495 24 -44
496 24 -44
497 24 -44
498 24 -44
499 44 -22
500 44 -22
501 4 45
502 4 45
503 4 45
504 4 45
505 47 -8
506 47 -8
507 -49 -35
508 -49 -35
509 -49 -35
510 -1 35
511 -1 35
512 24 -25
513 24 -25
514 24 -25
515 24 -25
516 24 -25
517 24 -25
518 24 -25
519 3 -7
520 3 -7
521 3 -7
522 3 -7
523 -37 46
524 -37 46
525 -37 46
526 -34 17
527 -34 17
528 -34 17
529 -34 17
530 -34 17
531 -34 17
532 -25 -35
533 -25 -35
534 11 39
535 11 39
536 11 39
537 11 39
538 -36 45
539 -36 45
540 -36 45
541 -36 45
542 -36 45
543 -36 45
544 43 2
545 43 2
546 43 2
547 43 2
548 43 2
549 -40 48
550 -40 48
551 -40 48
552 -40 48
553 9 -46
554 -33 5
555 -33 5
556 -33 5
557 -33 5
558 -33 5
559 -33 5
560 -33 5
561 -35 18
562 -35 18
563 -35 18
564 -35 18
565 24 -39
566 24 -39
567 24 -39
568 -31 -31
569 -31 -31
570 -31 -31
571 -31 -31
572 -31 -31
573 -31 -31
574 -38 -36
575 -38 -36
576 -38 -36
577 -38 -36
578 -38 -36
579 -38 -36
580 -43 50
581 -43 50
582 -43 50
583 -30 -45
584 -30 -45
585 -15 17
586 -15 17
587 31 -13
588 31 -13
589 49 -50
590 49 -50
591 49 -50
592 49 -50
593 49 -50
594 49 -50
595 -42 47
DEMAND_SECTION
1 0
2 200
3 10
4 100
5 50
6 10
7 200
8 10
9 10
10 10
11 200
12 200
13 200
14 100
15 10
16 10
17 10
18 10
19 200
20 100
21 10
22 10
23 10
24 200
25 100
26 10
27 10
28 200
29 100
30 10
31 10
32 200
33 100
34 50
35 10
36 10
37 10
38 10
39 200
40 50
41 10
42 10
43 10
44 200
45 10
46 10
47 10
48 200
49 100
50 10
51 10
52 10
53 10
54 200
55 200
56 10
57 10
58 10
59 10
60 200
61 50
62 10
63 10
64 100
65 50
66 10
67 200
68 100
69 50
70 10
71 100
72 10
73 10
74 10
75 200
76 100
77 10
78 10
79 10
80 200
81 100
82 10
83 10
84 10
85 200
86 50
87 10
88 10
89 200
90 200
91 50
92 10
93 10
94 200
95 100
96 10
97 10
98 10
99 200
100 200
101 50
102 10
103 10
104 10
105 10
106 200
107 100
108 10
109 10
110 10
111 10
112 200
113 200
114 10
115 200
116 200
117 100
118 50
119 200
120 200
121 10
122 10
123 10
124 200
125 10
126 10
127 200
128 100
129 10
130 10
131 10
132 10
133 200
134 100
135 50
136 10
137 10
138 100
139 50
140 10
141 100
142 10
143 10
144 10
145 10
146 100
147 10
148 10
149 10
150 200
151 100
152 50
153 10
154 10
155 200
156 100
157 50
158 10
159 10
160 10
161 10
162 200
163 100
164 10
165 10
166 10
167 200
168 100
169 200
170 100
171 50
172 100
173 10
174 10
175 10
176 10
177 200
178 50
179 10
180 10
181 10
182 10
183 200
184 50
185 10
186 10
187 10
188 200
189 100
190 200
191 50
192 10
193 200
194 100
195 10
196 10
197 10
198 10
199 200
200 100
201 50
202 200
203 200
204 50
205 10
206 10
207 10
208 200
209 10
210 200
211 200
212 50
213 10
214 10
215 10
216 100
217 50
218 200
219 50
220 10
221 10
222 200
223 100
224 50
225 200
226 100
227 200
228 100
229 50
230 10
231 10
232 10
233 200
234 100
235 50
236 10
237 10
238 10
239 10
240 200
241 100
242 50
243 200
244 200
245 200
246 50
247 10
248 200
249 100
250 10
251 200
252 100
253 50
254 10
255 10
256 200
257 100
258 10
259 10
260 10
261 10
262 100
263 10
264 10
265 10
266 10
267 200
268 100
269 50
270 200
271 100
272 10
273 10
274 200
275 200
276 50
277 10
278 10
279 10
280 10
281 200
282 100
283 50
284 200
285 200
286 200
287 100
288 50
289 10
290 10
291 200
292 50
293 10
294 10
295 10
296 10
297 200
298 100
299 10
300 10
301 10
302 200
303 50
304 10
305 10
306 200
307 200
308 50
309 200
310 100
311 50
312 10
313 200
314 10
315 200
316 10
317 10
318 100
319 50
320 10
321 10
322 10
323 200
324 100
325 10
326 10
327 200
328 100
329 50
330 10
331 200
332 200
333 50
334 10
335 10
336 200
337 10
338 10
339 200
340 10
341 10
342 10
343 10
344 200
345 10
346 200
347 10
348 10
349 200
350 50
351 10
352 10
353 10
354 10
355 200
356 200
357 50
358 100
359 10
360 10
361 10
362 200
363 50
364 10
365 10
366 10
367 10
368 200
369 200
370 50
371 200
372 100
373 10
374 10
375 10
376 10
377 200
378 200
379 10
380 200
381 100
382 10
383 10
384 10
385 10
386 200
387 200
388 200
389 50
390 10
391 10
392 10
393 10
394 100
395 50
396 10
397 10
398 10
399 10
400 200
401 50
402 10
403 200
404 200
405 50
406 10
407 10
408 200
409 100
410 10
411 10
412 10
413 10
414 200
415 200
416 100
417 200
418 200
419 200
420 100
421 50
422 10
423 10
424 200
425 100
426 50
427 10
428 10
429 10
430 200
431 100
432 10
433 10
434 10
435 200
436 50
437 10
438 10
439 10
440 100
441 50
442 10
443 10
444 200
445 10
446 10
447 10
448 100
449 50
450 200
451 50
452 200
453 50
454 100
455 50
456 10
457 10
458 200
459 10
460 10
461 100
462 50
463 10
464 10
465 10
466 10
467 200
468 100
469 50
470 10
471 100
472 10
473 10
474 10
475 10
476 100
477 50
478 200
479 100
480 10
481 10
482 100
483 10
484 10
485 10
486 200
487 200
488 50
489 200
490 200
491 10
492 10
493 10
494 100
495 10
496 10
497 10
498 10
499 100
500 50
501 200
502 100
503 10
504 10
505 200
506 50
507 200
508 100
509 10
510 200
511 100
512 200
513 200
514 50
515 10
516 10
517 10
518 10
519 200
520 50
521 10
522 10
523 200
524 50
525 10
526 100
527 50
528 10
529 10
530 10
531 10
532 200
533 10
534 200
535 10
536 10
537 10
538 200
539 100
540 50
541 10
542 10
543 10
544 200
545 10
546 10
547 10
548 10
549 200
550 10
551 10
552 10
553 200
554 200
555 100
556 50
557 10
558 10
559 10
560 10
561 200
562 200
563 10
564 10
565 200
566 100
567 10
568 200
569 200
570 50
571 10
572 10
573 10
574 200
575 50
576 10
577 10
578 10
579 10
580 200
581 200
582 50
583 200
584 50
585 200
586 50
587 200
588 200
589 200
590 100
591 10
592 10
593 10
594 10
595 200
DEPOT_SECTION
1
-1
EOF