Normalized Data/p04_17_normalized_splitx10_0.sol
594 -4 324 323 325 313 312 429 431 432 433 430 466 -7 9 8 6 468 469 467 12 17 16 15 132 134 135 133 136 -10 11 107 106 316 315 314 189 191 190 359 -14 13 141 144 143 140 142 593 592 591 590 588 589 422 420 421 419 418 -24 243 242 336 335 177 179 181 180 176 178 -25 26 23 289 287 285 288 286 396 395 393 394 397 398 322 -30 27 29 28 587 586 218 217 220 219 -32 275 274 273 487 485 486 -33 31 399 295 293 292 290 149 152 153 150 -35 37 36 34 182 266 268 267 113 111 112 -42 40 41 39 565 497 493 494 496 495 1 2 383 382 381 384 380 379 145 146 148 147 -44 43 46 45 385 499 498 377 376 378 -57 55 58 56 53 54 90 92 91 89 88 -62 59 60 61 50 51 48 49 47 52 238 236 234 232 237 235 233 -65 64 248 249 247 240 241 239 231 227 223 222 -67 66 96 94 95 93 97 502 503 501 500 -110 109 108 105 582 476 475 207 208 532 531 -117 116 556 553 554 555 558 63 18 20 21 19 22 151 -120 122 118 119 121 200 199 198 566 564 -125 123 124 245 246 244 355 354 356 401 400 -130 126 131 128 129 127 196 197 194 192 195 193 507 506 508 -137 138 139 86 85 84 87 448 447 68 69 535 534 536 533 480 478 -170 169 168 541 416 542 537 388 460 464 461 465 462 -172 174 173 171 175 254 251 253 252 250 115 114 559 557 291 294 -185 186 184 183 225 329 326 328 327 338 340 342 339 341 573 -210 214 212 213 209 211 547 545 544 543 546 308 310 -216 215 82 79 80 83 81 477 479 449 450 -226 270 269 271 345 346 347 521 519 520 518 -260 257 259 258 256 255 552 221 368 369 -272 166 167 38 517 515 511 513 512 516 514 -279 277 276 278 224 571 569 572 570 567 568 452 451 -280 282 281 71 73 72 70 363 361 366 362 584 585 -283 284 187 188 229 228 230 443 446 445 444 -296 299 300 297 298 414 415 413 441 440 442 439 -302 301 303 304 74 75 77 78 76 434 437 435 436 438 -319 320 423 424 427 428 425 426 5 3 367 349 348 353 351 350 352 -331 332 330 333 334 203 205 206 202 201 204 412 411 410 -357 358 360 305 307 306 489 491 492 488 490 -365 364 417 540 539 522 523 524 391 389 392 390 386 387 -371 372 375 370 374 373 563 562 561 560 527 528 530 525 529 526 -407 408 409 160 158 154 157 156 159 155 509 510 -454 456 453 455 321 318 317 165 162 164 163 161 344 343 474 470 472 473 -463 594 337 581 579 580 549 551 550 548 538 -471 406 405 404 402 403 311 505 504 309 481 483 484 482 -577 576 574 578 575 457 459 458 102 100 103 99 98 101 104 261 265 262 263 264 583 0 





OBJ=
4311.710
BEST_KNOWN=
0.000